solution status: optimal solution found
objective value:                     157772.855331293
d11(0,0)                                            1 	(obj:0)
d11(1,1)                                            1 	(obj:0)
d11(1,2)                                            1 	(obj:0)
d11(1,3)                                            1 	(obj:0)
d11(2,4)                                            1 	(obj:0)
d11(2,5)                                            1 	(obj:0)
d11(2,7)                                            1 	(obj:0)
d11(2,8)                                            1 	(obj:0)
d11(2,10)                                           1 	(obj:0)
d11(3,13)                                           1 	(obj:0)
d11(3,14)                                           1 	(obj:0)
d11(3,15)                                           1 	(obj:0)
d11(3,16)                                           1 	(obj:0)
d11(3,17)                                           1 	(obj:0)
d11(3,18)                                           1 	(obj:0)
d11(3,19)                                           1 	(obj:0)
d11(3,20)                                           1 	(obj:0)
d11(3,21)                                           1 	(obj:0)
d11(3,22)                                           1 	(obj:0)
d11(3,23)                                           1 	(obj:0)
d11(3,24)                                           1 	(obj:0)
d11(3,25)                                           1 	(obj:0)
d11(3,26)                                           1 	(obj:0)
d11(3,27)                                           1 	(obj:0)
d11(3,28)                                           1 	(obj:0)
d11(3,29)                                           1 	(obj:0)
d11(3,31)                                           1 	(obj:0)
d11(3,32)                                           1 	(obj:0)
d11(3,33)                                           1 	(obj:0)
d11(3,34)                                           1 	(obj:0)
d11(3,35)                                           1 	(obj:0)
d11(3,36)                                           1 	(obj:0)
d11(3,37)                                           1 	(obj:0)
d11(3,38)                                           1 	(obj:0)
d11(3,39)                                           1 	(obj:0)
d11(4,40)                                           1 	(obj:0)
d11(4,41)                                           1 	(obj:0)
d11(4,43)                                           1 	(obj:0)
d11(4,44)                                           1 	(obj:0)
d11(4,46)                                           1 	(obj:0)
d11(4,47)                                           1 	(obj:0)
d11(4,49)                                           1 	(obj:0)
d11(4,50)                                           1 	(obj:0)
d11(4,52)                                           1 	(obj:0)
d11(4,53)                                           1 	(obj:0)
d11(4,55)                                           1 	(obj:0)
d11(4,58)                                           1 	(obj:0)
d11(4,61)                                           1 	(obj:0)
d11(4,62)                                           1 	(obj:0)
d11(4,64)                                           1 	(obj:0)
d11(4,65)                                           1 	(obj:0)
d11(4,67)                                           1 	(obj:0)
d11(4,70)                                           1 	(obj:0)
d11(4,71)                                           1 	(obj:0)
d11(4,73)                                           1 	(obj:0)
d11(4,74)                                           1 	(obj:0)
d11(4,76)                                           1 	(obj:0)
d11(4,79)                                           1 	(obj:0)
d11(4,80)                                           1 	(obj:0)
d11(4,82)                                           1 	(obj:0)
d11(4,83)                                           1 	(obj:0)
d11(4,85)                                           1 	(obj:0)
d11(4,86)                                           1 	(obj:0)
d11(4,88)                                           1 	(obj:0)
d11(4,89)                                           1 	(obj:0)
d11(4,91)                                           1 	(obj:0)
d11(4,92)                                           1 	(obj:0)
d11(4,94)                                           1 	(obj:0)
d11(4,95)                                           1 	(obj:0)
d11(4,97)                                           1 	(obj:0)
d11(4,98)                                           1 	(obj:0)
d11(4,100)                                          1 	(obj:0)
d11(4,101)                                          1 	(obj:0)
d11(4,103)                                          1 	(obj:0)
d11(4,104)                                          1 	(obj:0)
d11(4,106)                                          1 	(obj:0)
d11(4,107)                                          1 	(obj:0)
d11(4,109)                                          1 	(obj:0)
d11(4,110)                                          1 	(obj:0)
d11(4,112)                                          1 	(obj:0)
d11(4,113)                                          1 	(obj:0)
d11(4,115)                                          1 	(obj:0)
d11(4,118)                                          1 	(obj:0)
d11(4,119)                                          1 	(obj:0)
d12(2,6)                                            1 	(obj:0)
d12(2,9)                                            1 	(obj:0)
d12(2,12)                                           1 	(obj:0)
d12(4,42)                                           1 	(obj:0)
d12(4,45)                                           1 	(obj:0)
d12(4,48)                                           1 	(obj:0)
d12(4,51)                                           1 	(obj:0)
d12(4,54)                                           1 	(obj:0)
d12(4,57)                                           1 	(obj:0)
d12(4,60)                                           1 	(obj:0)
d12(4,63)                                           1 	(obj:0)
d12(4,66)                                           1 	(obj:0)
d12(4,69)                                           1 	(obj:0)
d12(4,72)                                           1 	(obj:0)
d12(4,75)                                           1 	(obj:0)
d12(4,78)                                           1 	(obj:0)
d12(4,81)                                           1 	(obj:0)
d12(4,84)                                           1 	(obj:0)
d12(4,87)                                           1 	(obj:0)
d12(4,90)                                           1 	(obj:0)
d12(4,93)                                           1 	(obj:0)
d12(4,96)                                           1 	(obj:0)
d12(4,99)                                           1 	(obj:0)
d12(4,102)                                          1 	(obj:0)
d12(4,105)                                          1 	(obj:0)
d12(4,108)                                          1 	(obj:0)
d12(4,111)                                          1 	(obj:0)
d12(4,114)                                          1 	(obj:0)
d12(4,117)                                          1 	(obj:0)
d12(4,120)                                          1 	(obj:0)
d21(3,13)                                           1 	(obj:0)
d21(3,14)                                           1 	(obj:0)
d21(3,16)                                           1 	(obj:0)
d21(3,22)                                           1 	(obj:0)
d21(4,40)                                           1 	(obj:0)
d21(4,41)                                           1 	(obj:0)
d21(4,42)                                           1 	(obj:0)
d21(4,43)                                           1 	(obj:0)
d21(4,44)                                           1 	(obj:0)
d21(4,45)                                           1 	(obj:0)
d21(4,46)                                           1 	(obj:0)
d21(4,47)                                           1 	(obj:0)
d21(4,49)                                           1 	(obj:0)
d21(4,50)                                           1 	(obj:0)
d21(4,51)                                           1 	(obj:0)
d21(4,52)                                           1 	(obj:0)
d21(4,53)                                           1 	(obj:0)
d21(4,55)                                           1 	(obj:0)
d21(4,58)                                           1 	(obj:0)
d21(4,59)                                           1 	(obj:0)
d21(4,60)                                           1 	(obj:0)
d21(4,61)                                           1 	(obj:0)
d21(4,67)                                           1 	(obj:0)
d21(4,68)                                           1 	(obj:0)
d21(4,69)                                           1 	(obj:0)
d21(4,70)                                           1 	(obj:0)
d21(4,71)                                           1 	(obj:0)
d21(4,73)                                           1 	(obj:0)
d21(4,76)                                           1 	(obj:0)
d21(4,77)                                           1 	(obj:0)
d21(4,79)                                           1 	(obj:0)
d21(4,85)                                           1 	(obj:0)
d21(4,94)                                           1 	(obj:0)
d21(4,95)                                           1 	(obj:0)
d21(4,97)                                           1 	(obj:0)
d21(4,103)                                          1 	(obj:0)
y2(4,102)                            960.592982999987 	(obj:0)
y2(4,105)                            960.592982999987 	(obj:0)
y2(4,108)                            960.592982999987 	(obj:0)
y2(4,111)                            960.592982999987 	(obj:0)
y2(4,114)                            960.592982999987 	(obj:0)
y2(4,117)                            960.592982999987 	(obj:0)
y2(4,120)                            960.592982999987 	(obj:0)
STE(1,1)                             10794.3886194834 	(obj:0)
STE(0,0)                                        14175 	(obj:0)
STE(1,2)                             11791.1546228167 	(obj:0)
STE(1,3)                               13008.60682615 	(obj:0)
STE(2,4)                             8663.62261615008 	(obj:0)
STE(2,5)                             9660.38861948337 	(obj:0)
STE(2,6)                             10572.9519533334 	(obj:0)
STE(2,7)                              9660.3886194834 	(obj:0)
STE(2,8)                             10657.1546228167 	(obj:0)
STE(2,9)                             11569.7179566667 	(obj:0)
STE(2,10)                            10877.8408228168 	(obj:0)
STE(2,11)                              11874.60682615 	(obj:0)
STE(2,12)                            12787.1701600001 	(obj:0)
STE(3,13)                             5315.4044094834 	(obj:0)
STE(3,14)                            6312.17041281669 	(obj:0)
STE(3,15)                            7529.62261615008 	(obj:0)
STE(3,16)                            6312.17041281669 	(obj:0)
STE(3,17)                            7308.93641614998 	(obj:0)
STE(3,18)                            8526.38861948336 	(obj:0)
STE(3,19)                            7224.73374666673 	(obj:0)
STE(3,20)                            8221.49975000002 	(obj:0)
STE(3,21)                             9438.9519533334 	(obj:0)
STE(3,22)                            6312.17041281672 	(obj:0)
STE(3,23)                            7308.93641615001 	(obj:0)
STE(3,24)                             8526.3886194834 	(obj:0)
STE(3,25)                            7308.93641615001 	(obj:0)
STE(3,26)                             8305.7024194833 	(obj:0)
STE(3,27)                             9523.1546228167 	(obj:0)
STE(3,28)                            8221.49975000005 	(obj:0)
STE(3,29)                            9218.26575333334 	(obj:0)
STE(3,30)                            10435.7179566667 	(obj:0)
STE(3,31)                            7529.62261615007 	(obj:0)
STE(3,32)                            8526.38861948336 	(obj:0)
STE(3,33)                            9743.84082281674 	(obj:0)
STE(3,34)                            8526.38861948336 	(obj:0)
STE(3,35)                            9523.15462281665 	(obj:0)
STE(3,36)                              10740.60682615 	(obj:0)
STE(3,37)                             9438.9519533334 	(obj:0)
STE(3,38)                            10435.7179566667 	(obj:0)
STE(3,39)                            11653.1701600001 	(obj:0)
STE(4,40)                            3184.63840615005 	(obj:0)
STE(4,41)                             4181.4044094834 	(obj:0)
STE(4,42)                            5093.96774333339 	(obj:0)
STE(4,43)                            4181.40440948334 	(obj:0)
STE(4,44)                            5178.17041281669 	(obj:0)
STE(4,45)                            6090.73374666668 	(obj:0)
STE(4,46)                            5398.85661281673 	(obj:0)
STE(4,47)                            6395.62261615008 	(obj:0)
STE(4,48)                            7308.18595000007 	(obj:0)
STE(4,49)                            4181.40440948334 	(obj:0)
STE(4,50)                            5178.17041281669 	(obj:0)
STE(4,51)                            6090.73374666668 	(obj:0)
STE(4,52)                            5178.17041281669 	(obj:0)
STE(4,53)                            6174.93641614992 	(obj:0)
STE(4,54)                            7087.49974999997 	(obj:0)
STE(4,55)                            6395.62261615001 	(obj:0)
STE(4,56)                            7392.38861948336 	(obj:0)
STE(4,57)                            8304.95195333335 	(obj:0)
STE(4,58)                            5093.96774333338 	(obj:0)
STE(4,59)                            6090.73374666673 	(obj:0)
STE(4,60)                            7003.29708051672 	(obj:0)
STE(4,61)                            6090.73374666668 	(obj:0)
STE(4,62)                            7087.49975000003 	(obj:0)
STE(4,63)                            8000.06308385001 	(obj:0)
STE(4,64)                            7308.18595000005 	(obj:0)
STE(4,65)                             8304.9519533334 	(obj:0)
STE(4,66)                            9217.51528718339 	(obj:0)
STE(4,67)                            4181.40440948337 	(obj:0)
STE(4,68)                            5178.17041281672 	(obj:0)
STE(4,69)                            6090.73374666671 	(obj:0)
STE(4,70)                            5178.17041281666 	(obj:0)
STE(4,71)                            6174.93641615001 	(obj:0)
STE(4,72)                                  7087.49975 	(obj:0)
STE(4,73)                            6395.62261615005 	(obj:0)
STE(4,74)                             7392.3886194834 	(obj:0)
STE(4,75)                            8304.95195333339 	(obj:0)
STE(4,76)                            5178.17041281666 	(obj:0)
STE(4,77)                            6174.93641615001 	(obj:0)
STE(4,78)                                  7087.49975 	(obj:0)
STE(4,79)                            6174.93641614995 	(obj:0)
STE(4,80)                            7171.70241948329 	(obj:0)
STE(4,81)                            8084.26575333329 	(obj:0)
STE(4,82)                            7392.38861948335 	(obj:0)
STE(4,83)                             8389.1546228167 	(obj:0)
STE(4,84)                            9301.71795666668 	(obj:0)
STE(4,85)                             6090.7337466667 	(obj:0)
STE(4,86)                            7087.49975000005 	(obj:0)
STE(4,87)                            8000.06308385004 	(obj:0)
STE(4,88)                            7087.49974999999 	(obj:0)
STE(4,89)                            8084.26575333334 	(obj:0)
STE(4,90)                            8996.82908718333 	(obj:0)
STE(4,91)                            8304.95195333338 	(obj:0)
STE(4,92)                            9301.71795666673 	(obj:0)
STE(4,93)                            10214.2812905167 	(obj:0)
STE(4,94)                            5398.85661281672 	(obj:0)
STE(4,95)                            6395.62261615007 	(obj:0)
STE(4,96)                            7308.18595000006 	(obj:0)
STE(4,97)                            6395.62261615011 	(obj:0)
STE(4,98)                            7392.38861948336 	(obj:0)
STE(4,99)                            8304.95195333335 	(obj:0)
STE(4,100)                           7613.07481948339 	(obj:0)
STE(4,101)                           8609.84082281674 	(obj:0)
STE(4,102)                           9522.40415666673 	(obj:0)
STE(4,103)                           6395.62261615001 	(obj:0)
STE(4,104)                           7392.38861948336 	(obj:0)
STE(4,105)                           8304.95195333335 	(obj:0)
STE(4,106)                            7392.3886194833 	(obj:0)
STE(4,107)                           8389.15462281665 	(obj:0)
STE(4,108)                           9301.71795666664 	(obj:0)
STE(4,109)                           8609.84082281669 	(obj:0)
STE(4,110)                           9606.60682615004 	(obj:0)
STE(4,111)                                10519.17016 	(obj:0)
STE(4,112)                           7308.18595000005 	(obj:0)
STE(4,113)                            8304.9519533334 	(obj:0)
STE(4,114)                           9217.51528718339 	(obj:0)
STE(4,115)                           8304.95195333334 	(obj:0)
STE(4,116)                           9301.71795666669 	(obj:0)
STE(4,117)                           10214.2812905167 	(obj:0)
STE(4,118)                           9522.40415666672 	(obj:0)
STE(4,119)                           10519.1701600001 	(obj:0)
STE(4,120)                           11431.7334938501 	(obj:0)
y1(4,100)                            897.089403000015 	(obj:0)
y1(4,103)                            897.089403000015 	(obj:0)
y1(4,106)                            897.089403000015 	(obj:0)
y1(4,109)                            897.089403000015 	(obj:0)
y1(4,112)                            897.089403000015 	(obj:0)
y1(4,115)                            897.089403000015 	(obj:0)
y1(4,118)                            897.089403000015 	(obj:0)
AVE(3)                                3399.3204933139 	(obj:0)
AVE(4)                               3353.21046544222 	(obj:0)
y2(4,99)                             960.592982999987 	(obj:0)
WG(3)                                 3399.3204933139 	(obj:10)
WG(4)                                3353.21046544222 	(obj:10)
BG(1)                                4525.66718312747 	(obj:10)
BG(2)                                3377.84999999995 	(obj:10)
BG(3)                                 1096.5978566861 	(obj:10)
BG(4)                                24.6395345577802 	(obj:10)
WB(1)                                3134.60043707458 	(obj:0)
AVE(1)                               3134.60043707458 	(obj:0)
WB(2)                                3326.45170866643 	(obj:0)
AVE(2)                               3326.45170866643 	(obj:0)
y1(1,1)                              2021.95024246497 	(obj:0)
y1(1,2)                              1124.86083946498 	(obj:0)
y1(1,3)                              29.1538564649654 	(obj:0)
y1(2,4)                              897.089402999962 	(obj:0)
y1(2,7)                              897.089402999962 	(obj:0)
y1(2,10)                             897.089402999962 	(obj:0)
y1(3,13)                             1992.79638600001 	(obj:0)
y1(3,14)                             1095.70698300005 	(obj:0)
y1(3,16)                             1992.79638600001 	(obj:0)
y1(3,17)                             1095.70698300005 	(obj:0)
y1(3,19)                             1992.79638600001 	(obj:0)
y1(3,20)                             1095.70698300005 	(obj:0)
y1(3,22)                             1992.79638600001 	(obj:0)
y1(3,23)                             1095.70698300005 	(obj:0)
y1(3,25)                             1992.79638600001 	(obj:0)
y1(3,26)                             1095.70698300005 	(obj:0)
y1(3,28)                             1992.79638600001 	(obj:0)
y1(3,29)                             1095.70698300005 	(obj:0)
y1(3,31)                             1992.79638600001 	(obj:0)
y1(3,32)                             1095.70698300005 	(obj:0)
y1(3,34)                             1992.79638600001 	(obj:0)
y1(3,35)                             1095.70698300005 	(obj:0)
y1(3,37)                             1992.79638600001 	(obj:0)
y1(3,38)                             1095.70698300005 	(obj:0)
y1(4,40)                             897.089403000015 	(obj:0)
y1(4,43)                             897.089403000015 	(obj:0)
y1(4,46)                             897.089403000015 	(obj:0)
y1(4,49)                             897.089403000015 	(obj:0)
y1(4,52)                             897.089402999965 	(obj:0)
y1(4,55)                             897.089403000015 	(obj:0)
y1(4,58)                             897.089403000015 	(obj:0)
y1(4,61)                             897.089403000015 	(obj:0)
y1(4,64)                             897.089403000015 	(obj:0)
y1(4,67)                             897.089403000015 	(obj:0)
y1(4,70)                             897.089403000015 	(obj:0)
y1(4,73)                             897.089403000015 	(obj:0)
y1(4,76)                             897.089403000015 	(obj:0)
y1(4,79)                             897.089403000015 	(obj:0)
y1(4,82)                             897.089403000015 	(obj:0)
y1(4,85)                             897.089403000015 	(obj:0)
y1(4,88)                             897.089403000015 	(obj:0)
y1(4,91)                             897.089403000015 	(obj:0)
y1(4,94)                             897.089403000015 	(obj:0)
y1(4,97)                             897.089402999729 	(obj:0)
y2(2,6)                              960.592983000042 	(obj:0)
y2(2,9)                              960.592983000042 	(obj:0)
y2(2,12)                             960.592983000042 	(obj:0)
y2(4,42)                             960.592982999987 	(obj:0)
y2(4,45)                             960.592982999987 	(obj:0)
y2(4,48)                             960.592982999987 	(obj:0)
y2(4,51)                             960.592982999987 	(obj:0)
y2(4,54)                             960.592982999987 	(obj:0)
y2(4,57)                             960.592982999987 	(obj:0)
y2(4,60)                             960.592982999987 	(obj:0)
y2(4,63)                             960.592982999987 	(obj:0)
y2(4,66)                             960.592982999987 	(obj:0)
y2(4,69)                             960.592982999987 	(obj:0)
y2(4,72)                             960.592982999987 	(obj:0)
y2(4,75)                             960.592982999987 	(obj:0)
y2(4,78)                             960.592982999987 	(obj:0)
y2(4,81)                             960.592982999987 	(obj:0)
y2(4,84)                             960.592982999987 	(obj:0)
y2(4,87)                             960.592982999987 	(obj:0)
y2(4,90)                             960.592982999987 	(obj:0)
y2(4,93)                             960.592982999987 	(obj:0)
y2(4,96)                             960.592982999987 	(obj:0)
